SCIP version 5.0.0 [precision: 8 byte] [memory: block] [mode: optimized] [LP solver: NONE] [GitHash: 3bbd232]
Copyright (C) 2002-2017 Konrad-Zuse-Zentrum fuer Informationstechnik Berlin (ZIB)

External codes: 
  Readline EditLine w  GNU library for command line editing (gnu.org/s/readline)
  CppAD 20160000.1     Algorithmic Differentiation of C++ algorithms developed by B. Bell (www.coin-or.org/CppAD)
  ZLIB 1.2.5           General purpose compression library by J. Gailly and M. Adler (zlib.net)
  GMP 6.1.2            GNU Multiple Precision Arithmetic Library developed by T. Granlund (gmplib.org)

user parameter file <scip.set> not found - using default parameters

read problem <../../Split_data/output/seismic-bumps/0/1_sample_seismic-bumps.logreg>
============

File name	:	../../Split_data/output/seismic-bumps/0/1_sample_seismic-bumps.logreg
Problem name 	:	1_sample_seismic-bumps
Number of data	:	2067
Number of var	:	21
The given data has linear dependence
4 sets of column vector are linearly dependent:
{ 2 3}, { 4 5 6}, { 7 8}, { 13 14 15}, 

[dim=1] time: 0.034901
[dim=2] time: 0.069589
[dim=3] time: 0.104842
[dim=4] time: 0.137724
[dim=5] time: 0.16722
[dim=6] time: 0.202863
[dim=7] time: 0.238392
[dim=8] time: 0.266144
[dim=9] Time of forward = 0.286941sec.
AIC: 853.368
k: 8

[dim=17] time: 0.067195
[dim=16] time: 0.086465
[dim=15] time: 0.124252
[dim=14] time: 0.15152
[dim=13] time: 0.175957
[dim=12] time: 0.196054
[dim=11] time: 0.210212
[dim=10] time: 0.229958
[dim=9] time: 0.247432
[dim=8] time: 0.257451
[dim=7] time: 0.275617
[dim=6] Time of backward = 0.288546sec.
AIC: 853.853
k: 7
